c   #vars: 115   #clauses: 527   #literals: 1430
c 
p cnf 115 527
-1 -2 0
-18 26 27 84 0
-3 -4 0
-5 -6 0
-7 -8 0
-9 -10 0
-13 -14 0
-15 -16 0
-18 -19 0
-20 -21 0
-22 -23 0
-24 -25 0
-26 -27 0
-28 -29 0
50 51 88 89 0
-30 -31 0
-32 -33 0
-35 -36 0
-37 -38 0
-41 -42 0
101 102 108 109 0
106 107 108 109 0
-43 -44 0
-45 -46 0
-48 -49 0
-50 -51 0
-52 -53 0
-54 -55 0
-56 -57 0
-58 -59 0
-60 -61 0
-62 -63 0
-64 -65 0
-66 -67 0
-5 -6 15 16 0
76 77 99 100 0
-68 -69 0
-70 -71 0
-72 -73 0
-74 -75 0
99 100 113 114 0
-76 -77 0
-78 -79 0
-80 -81 0
7 8 99 100 0
11 12 54 55 0
18 19 -26 84 0
-82 -83 0
-85 -86 0
60 61 -70 96 0
-88 -89 0
-90 -91 0
-92 -93 0
-94 -95 0
-35 68 69 112 0
-97 -98 0
-99 -100 0
-101 -102 0
41 42 72 73 0
-7 27 84 0
11 12 66 67 0
-104 -105 0
-106 -107 0
5 6 88 89 0
-108 -109 0
3 4 110 111 0
-110 -111 0
-113 -114 0
50 51 97 98 0
7 8 80 81 0
11 12 32 33 0
47 -69 85 86 0
48 49 62 63 0
24 25 106 107 0
47 -91 101 102 0
-1 -24 0
-2 -25 0
5 6 104 105 0
-1 -52 0
-2 -53 0
64 65 90 91 0
-1 -82 0
-2 -83 0
32 33 70 71 0
-1 -104 0
-2 -105 0
47 -69 101 102 0
28 29 104 105 0
64 65 104 105 0
-4 -34 0
-3 -37 0
-4 -38 0
-4 -103 0
-3 -110 0
-4 -111 0
-5 -9 0
-6 -10 0
7 8 26 27 0
-5 -24 0
-6 -25 0
-5 -62 0
-6 -63 0
9 10 45 46 0
39 40 -41 115 0
34 -37 60 61 0
48 49 101 102 0
-5 -88 0
-6 -89 0
5 6 9 10 0
-5 -104 0
-6 -105 0
13 14 56 57 0
-7 -26 0
-8 -27 0
62 63 106 107 0
-7 -28 0
-8 -29 0
1 2 82 83 0
-7 -80 0
-8 -81 0
-8 -84 0
30 31 72 73 0
-7 -99 0
-8 -100 0
20 21 35 36 0
-9 -28 0
-10 -29 0
43 44 92 93 0
-9 -41 0
-10 -42 0
-58 87 110 111 0
-9 -45 0
-10 -46 0
18 19 30 31 0
-9 -70 0
-10 -71 0
43 44 82 83 0
-9 -78 0
-10 -79 0
18 19 68 69 0
-9 -90 0
-10 -91 0
47 -86 90 91 0
-11 -13 0
-12 -14 0
39 40 78 79 0
-11 -32 0
-12 -33 0
-11 -39 0
-12 -40 0
74 75 104 105 0
-11 -54 0
-12 -55 0
-11 -66 0
-12 -67 0
-11 -76 0
-12 -77 0
-24 97 98 103 0
-11 -94 0
-12 -95 0
9 10 70 71 0
28 29 58 59 0
17 22 23 -101 0
1 2 104 105 0
-13 -52 0
-14 -53 0
-13 -56 0
-14 -57 0
92 93 113 114 0
-13 -78 0
-14 -79 0
24 25 80 81 0
-13 -101 0
-14 -102 0
47 -69 90 91 0
-3 34 60 61 0
56 57 85 86 0
-15 -74 0
-16 -75 0
-3 97 98 103 0
-26 68 69 112 0
-16 -96 0
50 51 94 95 0
-15 -99 0
-16 -100 0
-20 87 110 111 0
-17 -23 0
-41 78 79 115 0
-17 -49 0
35 36 90 91 0
-17 -102 0
32 33 74 75 0
-18 -30 0
-19 -31 0
-18 -37 0
-19 -38 0
45 46 74 75 0
-18 -68 0
-19 -69 0
54 55 99 100 0
-19 -84 0
26 27 50 51 0
8 -26 84 0
-18 -104 0
-19 -105 0
-20 -30 0
-21 -31 0
9 10 41 42 0
-20 -35 0
-21 -36 0
35 36 80 81 0
-20 -66 0
-21 -67 0
11 12 76 77 0
-15 60 61 96 0
-21 -87 0
7 8 28 29 0
-22 -41 0
-23 -42 0
11 12 13 14 0
-22 -72 0
-23 -73 0
90 91 108 109 0
-22 -97 0
-23 -98 0
5 6 -15 -16 0
-22 -99 0
-23 -100 0
26 27 92 93 0
-24 -64 0
-25 -65 0
-24 -80 0
-25 -81 0
-60 70 71 96 0
-25 -103 0
-24 -106 0
-25 -107 0
26 27 30 31 0
-26 -30 0
-27 -31 0
30 31 43 44 0
-26 -50 0
-27 -51 0
22 23 99 100 0
-27 -84 0
26 27 -35 112 0
-26 -92 0
-27 -93 0
-39 79 115 0
-27 -112 0
47 -86 101 102 0
-28 -58 0
-29 -59 0
-28 -76 0
-29 -77 0
-28 -104 0
-29 -105 0
45 46 56 57 0
-30 -43 0
-31 -44 0
32 33 110 111 0
-30 -52 0
-31 -53 0
48 49 76 77 0
-30 -72 0
-31 -73 0
47 85 86 -91 0
-32 -58 0
-33 -59 0
-32 -66 0
-33 -67 0
17 48 49 -101 0
-32 -70 0
-33 -71 0
45 46 78 79 0
-32 -74 0
-33 -75 0
-32 -110 0
-33 -111 0
22 23 97 98 0
-34 -38 0
17 -48 101 102 0
-34 -61 0
41 42 -78 115 0
-35 -80 0
-36 -81 0
3 4 37 38 0
-35 -90 0
-36 -91 0
34 37 38 -60 0
-36 -112 0
3 4 34 -60 0
-39 -40 0
22 23 41 42 0
-37 -82 0
-38 -83 0
37 38 82 83 0
-39 -78 0
-40 -79 0
-7 18 19 84 0
20 21 87 -110 0
48 49 68 69 0
-39 -85 0
-40 -86 0
43 44 97 98 0
47 68 69 -102 0
-40 -115 0
70 71 104 105 0
18 19 37 38 0
17 22 23 -48 0
-41 -72 0
-42 -73 0
30 31 52 53 0
-41 -113 0
-42 -114 0
64 65 72 73 0
47 68 69 -91 0
-42 -115 0
60 61 72 73 0
3 4 -97 103 0
48 49 90 91 0
3 4 -24 103 0
85 86 90 91 0
-43 -70 0
-44 -71 0
17 -22 48 49 0
-43 -82 0
-44 -83 0
9 10 90 91 0
-43 -92 0
-44 -93 0
-3 24 25 103 0
-43 -97 0
-44 -98 0
26 27 -68 112 0
-45 -56 0
-46 -57 0
-45 -74 0
-46 -75 0
17 -22 101 102 0
-45 -78 0
-46 -79 0
22 23 72 73 0
-45 -97 0
-46 -98 0
-47 -68 0
9 10 28 29 0
-20 58 59 87 0
3 4 34 -37 0
-47 -85 0
52 53 76 77 0
-47 -90 0
76 77 94 95 0
-47 -101 0
-48 -62 0
-49 -63 0
15 16 74 75 0
-48 -68 0
-49 -69 0
32 33 58 59 0
-48 -76 0
-49 -77 0
58 59 68 69 0
-48 -90 0
-49 -91 0
58 59 62 63 0
-48 -101 0
-49 -102 0
50 51 52 53 0
-50 -52 0
-51 -53 0
32 33 66 67 0
-50 -64 0
-51 -65 0
52 53 108 109 0
-50 -72 0
-51 -73 0
74 75 101 102 0
-50 -88 0
-51 -89 0
94 95 113 114 0
-50 -94 0
-51 -95 0
41 42 113 114 0
-50 -97 0
-51 -98 0
50 51 72 73 0
-52 -76 0
-53 -77 0
-52 -88 0
-53 -89 0
5 6 24 25 0
-52 -108 0
-53 -109 0
72 73 110 111 0
-54 -66 0
-55 -67 0
43 44 70 71 0
-54 -82 0
-55 -83 0
1 2 52 53 0
-54 -99 0
-55 -100 0
-56 -85 0
-57 -86 0
80 81 85 86 0
-56 -99 0
-57 -100 0
80 81 92 93 0
-58 -62 0
-59 -63 0
11 12 94 95 0
-58 -68 0
-59 -69 0
24 25 64 65 0
-58 -80 0
-59 -81 0
47 90 91 -102 0
15 16 -70 96 0
-59 -87 0
-60 -72 0
-61 -73 0
-60 -88 0
-61 -89 0
35 36 -68 112 0
-61 -96 0
15 16 99 100 0
-62 -70 0
-63 -71 0
-62 -106 0
-63 -107 0
54 55 66 67 0
-64 -72 0
-65 -73 0
20 21 66 67 0
-64 -85 0
-65 -86 0
-64 -90 0
-65 -91 0
76 77 113 114 0
-64 -104 0
-65 -105 0
64 65 85 86 0
-66 -70 0
-67 -71 0
9 10 78 79 0
40 -78 115 0
-11 -12 0
70 71 108 109 0
-69 -112 0
20 21 30 31 0
-26 35 36 112 0
-71 -96 0
11 12 39 40 0
-70 -104 0
-71 -105 0
5 6 62 63 0
-70 -108 0
-71 -109 0
24 25 -97 103 0
-72 -110 0
-73 -111 0
13 14 78 79 0
-74 -101 0
-75 -102 0
47 85 86 -102 0
-74 -104 0
-75 -105 0
39 40 85 86 0
76 77 90 91 0
-76 -90 0
-77 -91 0
62 63 70 71 0
-76 -94 0
-77 -95 0
18 19 104 105 0
-76 -99 0
-77 -100 0
1 2 24 25 0
-76 -113 0
-77 -114 0
13 14 52 53 0
47 68 69 -86 0
-79 -115 0
82 83 88 89 0
-80 -85 0
-81 -86 0
52 53 88 89 0
-80 -92 0
-81 -93 0
-15 70 71 96 0
58 59 87 -110 0
20 21 -58 87 0
45 46 97 98 0
-82 -88 0
-83 -89 0
50 51 64 65 0
7 8 -18 84 0
60 61 88 89 0
-85 -90 0
-86 -91 0
15 16 -60 96 0
-87 -111 0
13 14 101 102 0
-88 -106 0
-89 -107 0
-90 -108 0
-91 -109 0
66 67 70 71 0
-92 -113 0
-93 -114 0
56 57 99 100 0
-94 -113 0
-95 -114 0
58 59 80 81 0
-3 34 37 38 0
-98 -103 0
28 29 76 77 0
-99 -113 0
-100 -114 0
88 89 106 107 0
-101 -108 0
-102 -109 0
-106 -108 0
-107 -109 0
54 55 82 83 0
-39 41 42 115 0
